code/experiments/eil51_sub/eil51_n08.tsp
NAME : eil51_n8
COMMENT : 8-city problem (Christofides/Eilon)
TYPE : TSP
DIMENSION : 8
EDGE_WEIGHT_TYPE : CEIL_2D
NODE_COORD_SECTION
1 52 64
2 57 58
3 16 57
4 27 68
5 58 48
6 10 17
7 39 10
8 48 28
EOF
