code/experiments/eil51_sub/eil51_n08.opt.tour
8
0 3 2 5 6 7 4 1 
